start acetic_acid

memory 1000 mb

geometry units angstroms
  C1    1.144    -0.816     0.000
  C2    0.000     0.168     0.000
  O3    0.057     1.390     0.000
  H4    2.090    -0.276     0.000
  H5    1.074    -1.459     0.883
  H6    1.074    -1.459    -0.883
  O7   -1.202    -0.522     0.000
  H8   -1.942     0.147     0.000
end

basis
  C  library 3-21g
  O  library 3-21g
  H  library 3-21g
end

dft
  mult 1 
  xc b3lyp
  maxiter 100
  print low
end

task dft

