start benzene

memory 2000 mb

geometry units angstroms
  C1     0.000     1.397     0.000
  C2     1.210     0.699     0.000
  C3     1.210    -0.699     0.000 
  C4     0.000    -1.397     0.000
  C5    -1.210    -0.699     0.000
  C6    -1.210     0.699     0.000
  H1     0.000     2.481     0.000
  H2     2.149     1.241     0.000
  H3     2.149    -1.241     0.000
  H4     0.000    -2.481     0.000
  H5    -2.149    -1.241     0.000
  H6    -2.149     1.241     0.000
end

basis
  C library 3-21g
  H library 3-21g
end

dft
  mult 1 
  xc b3lyp
  maxiter 100
  print low
end

task dft

