#! Sample HF/cc-pVTZ CH3COOH computation

memory 600 mb

molecule ch3cooh {
  C1   1.021 -0.943  0.000
  C2   0.000  0.155  0.000
  O3   0.235  1.314  0.000
  H4   2.011 -0.517  0.000
  H5   0.881 -1.566  0.874
  H6   0.881 -1.566 -0.874
  O7  -1.242 -0.318  0.000
  H8  -1.842  0.413  0.000
  units angstrom
}


set basis cc-pVTZ
energy('scf')

