#! Sample HF/STO-3G C6H6 computation

memory 600 mb

molecule c6h6 {
  C1   0.000  1.387  0.000
  C2   1.201  0.693  0.000
  C3   1.201 -0.693  0.000
  C4   0.000 -1.387  0.000
  C5  -1.201 -0.693  0.000
  C6  -1.201  0.693  0.000

  H7   0.000  2.469  0.000
  H8   2.139  1.235  0.000
  H9   2.139 -1.235  0.000
  H10  0.000 -2.469  0.000
  H11 -2.139 -1.235  0.000
  H12 -2.139  1.235  0.000

  units angstrom
}


set basis STO-3G
energy('scf')

