#! Sample HF/cc-pVDZ C6H6 computation

memory 600 mb

molecule c6h6 {
  C1   0.000  1.389  0.000
  C2   1.203  0.694  0.000
  C3   1.203 -0.694  0.000
  C4   0.000 -1.389  0.000
  C5  -1.203 -0.694  0.000
  C6  -1.203  0.694  0.000

  H7   0.000  2.471  0.000
  H8   2.140  1.235  0.000
  H9   2.140 -1.235  0.000
  H10  0.000 -2.471  0.000
  H11 -2.140 -1.235  0.000
  H12 -2.140  1.235  0.000

  units angstrom
}


set basis cc-pVDZ
energy('scf')

