start acetic_acid

memory 1000 mb

geometry units angstroms
  C1    1.060    -0.916     0.000
  C2    0.000     0.156     0.000
  O3    0.192     1.350     0.000
  H4    2.053    -0.451     0.000
  H5    0.941    -1.558     0.886
  H6    0.941    -1.558    -0.886
  O7   -1.247    -0.381     0.000
  H8   -1.859     0.378     0.000
end

basis
  C  library cc-pVDZ
  O  library cc-pVDZ
  H  library cc-pVDZ
end

dft
  mult 1 
  xc b3lyp
  maxiter 100
  print low
end

task dft

