start h2o

memory 1000 mb

geometry units angstroms
  O     0.000     0.000     0.121
  H     0.000     0.756    -0.484
  H     0.000    -0.756    -0.484
end

basis
  O library cc-pvdz
  H library cc-pvdz
end

dft
  mult 1 
  xc b3lyp
  maxiter 100
  print low
end

task dft

