#! Sample DFT/6-31G C6H6 computation

memory 600 mb

molecule c6h6 {
  C1   0.000  1.400  0.000
  C2   1.213  0.700  0.000
  C3   1.213 -0.700  0.000
  C4   0.000 -1.400  0.000
  C5  -1.213 -0.700  0.000
  C6  -1.213  0.700  0.000

  H7   0.000  2.486  0.000
  H8   2.153  1.243  0.000
  H9   2.153 -1.243  0.000
  H10  0.000 -2.486  0.000
  H11 -2.153 -1.243  0.000
  H12 -2.153  1.243  0.000

  units angstrom
}


set basis 6-31G
energy('scf', dft_functional = 'b3lyp')

