#! Sample DFT/STO-3G H2O computation

memory 600 mb

molecule h2o {
  O  0.000  0.000  0.136
  H  0.000  0.771 -0.543
  H  0.000 -0.771 -0.543
  units angstrom
}


set basis STO-3G
energy('scf', dft_functional = 'b3lyp')

