#! Sample DFT/3-21G CCl2O computation

memory 600 mb

molecule ccl2o {
  O1   0.000  0.000  1.761
  C2   0.000  0.000  0.576
  Cl3  0.000  1.511 -0.516
  Cl4  0.000 -1.511 -0.516
  units angstrom
}


set basis 3-21G
energy('scf', dft_functional='b3lyp')

