#! Sample DFT/cc-pVTZ CH3COOH computation

memory 600 mb

molecule ch3cooh {
  C1   1.064 -0.905  0.000
  C2   0.000  0.156  0.000
  O3   0.185  1.345  0.000
  H4   2.044 -0.438  0.000
  H5   0.953 -1.542  0.878
  H6   0.953 -1.542 -0.878
  O7  -1.243  0.386  0.000
  H8  -1.869  0.352  0.000
  units angstrom
}


set basis cc-pVTZ
energy('scf', dft_functional = 'b3lyp')

