start h2o

memory 1000 mb

geometry units angstroms
  O     0.000     0.000     0.136
  H     0.000     0.771    -0.543
  H     0.000    -0.771    -0.543
end

basis
  O library sto-3g
  H library sto-3g
end

dft
  mult 1 
  xc b3lyp
  maxiter 100
  print low
end

task dft

