#! Sample HF/6-31G C6H6 computation

memory 600 mb

molecule c6h6 {
  C1   0.000  1.388  0.000
  C2   1.202  0.694  0.000
  C3   1.202 -0.694  0.000
  C4   0.000 -1.388  0.000
  C5  -1.202 -0.694  0.000
  C6  -1.202  0.694  0.000

  H7   0.000  2.462  0.000
  H8   2.132  1.231  0.000
  H9   2.132 -1.231  0.000
  H10  0.000 -2.462  0.000
  H11 -2.132 -1.231  0.000
  H12 -2.132  1.231  0.000

  units angstrom
}


set basis 6-31G
energy('scf')

