#! Sample HF/3-21G CCl2O computation

memory 600 mb

molecule ccl2o {
  O1   0.000  0.000  1.712
  C2   0.000  0.000  0.548
  Cl3  0.000  1.501 -0.500
  Cl4  0.000 -1.501 -0.500
  units angstrom
}


set basis 3-21G
energy('scf')

