#! Sample HF/cc-pVTZ CCl2O computation

memory 600 mb

molecule ccl2o {
  O1   0.000  0.000  1.642
  C2   0.000  0.000  0.489
  Cl3  0.000  1.444 -0.473
  Cl4  0.000 -1.444 -0.473
  units angstrom
}


set basis cc-pVTZ
energy('scf')

