#! Sample HF/STO-3G CH3COOH computation

memory 600 mb

molecule ch3cooh {
  C1   1.118 -0.893  0.000
  C2   0.000  0.162  0.000
  O3   0.138  1.370  0.000
  H4   2.085 -0.401  0.000
  H5   1.031 -1.522  0.881
  H6   1.031 -1.522 -0.881
  O7  -1.258  0.433  0.000
  H8  -1.893  0.327  0.000
  units angstrom
}


set basis STO-3G
energy('scf')

