#! Sample DFT/3-21G H2O computation

memory 600 mb

molecule h2o {
  O  0.000  0.000  0.123
  H  0.000  0.785 -0.491
  H  0.000 -0.785 -0.491
  units angstrom
}


set basis 3-21G
energy('scf', dft_functional = 'b3lyp')

