#! Sample DFT/STO-3G C6H6 computation

memory 600 mb

molecule c6h6 {
  C1   0.000  1.409  0.000
  C2   1.220  0.705  0.000
  C3   1.220 -0.705  0.000
  C4   0.000 -1.409  0.000
  C5  -1.220 -0.705  0.000
  C6  -1.220  0.705  0.000

  H7   0.000  2.508  0.000
  H8   2.172  1.254  0.000
  H9   2.172 -1.254  0.000
  H10  0.000 -2.508  0.000
  H11 -2.172 -1.254  0.000
  H12 -2.172  1.254  0.000

  units angstrom
}


set basis STO-3G
energy('scf', dft_functional = 'b3lyp')

