#! Sample DFT/cc-pVTZ C6H6 computation

memory 600 mb

molecule c6h6 {
  C1   0.000  1.391  0.000
  C2   1.204  0.695  0.000
  C3   1.204 -0.695  0.000
  C4   0.000 -1.391  0.000
  C5  -1.204 -0.695  0.000
  C6  -1.204  0.695  0.000

  H7   0.000  2.473  0.000
  H8   2.142  1.236  0.000
  H9   2.142 -1.236  0.000
  H10  0.000 -2.473  0.000
  H11 -2.142 -1.236  0.000
  H12 -2.142  1.236  0.000

  units angstrom
}


set basis cc-pVTZ
energy('scf', dft_functional = 'b3lyp')

