#! Sample HF/cc-pVTZ CH4 computation

memory 600 mb

molecule ch4 {
  C1  0.000  0.000  0.000
  H2  0.625  0.625  0.625
  H3 -0.625 -0.625  0.625
  H4 -0.625  0.625 -0.625
  H5  0.625 -0.625 -0.625  
  units angstrom
}


set basis cc-pVTZ
energy('scf')

