start benzene

memory 2000 mb

geometry units angstroms
  C1     0.000     1.399     0.000
  C2     1.211     0.699     0.000
  C3     1.211    -0.699     0.000 
  C4     0.000    -1.399     0.000
  C5    -1.211    -0.699     0.000
  C6    -1.211     0.699     0.000
  H1     0.000     2.491     0.000
  H2     2.158     1.246     0.000
  H3     2.158    -1.246     0.000
  H4     0.000    -2.491     0.000
  H5    -2.158    -1.246     0.000
  H6    -2.158     1.246     0.000
end

basis
  C library cc-pVDZ
  H library cc-pVDZ
end

dft
  mult 1 
  xc b3lyp
  maxiter 100
  print low
end

task dft

