#! Sample DFT/3-21G C6H6 computation

memory 600 mb

molecule c6h6 {
  C1   0.000  1.397  0.000
  C2   1.210  0.699  0.000
  C3   1.210 -0.699  0.000
  C4   0.000 -1.397  0.000
  C5  -1.210 -0.699  0.000
  C6  -1.210  0.699  0.000

  H7   0.000  2.481  0.000
  H8   2.149  1.241  0.000
  H9   2.149 -1.241  0.000
  H10  0.000 -2.481  0.000
  H11 -2.149 -1.241  0.000
  H12 -2.149  1.241  0.000

  units angstrom
}


set basis 3-21G
energy('scf', dft_functional = 'b3lyp')

