#! Sample HF/STO-3G CCl2O computation

memory 600 mb

molecule ccl2o {
  O1   0.000  0.000  1.707
  C2   0.000  0.000  0.513
  Cl3  0.000  1.496 -0.492
  Cl4  0.000 -1.496 -0.492
  units angstrom
}


set basis STO-3G
energy('scf')

